NAME : amz1053.95463_84963.tour
COMMENT : Cost = 95463_84963
COMMENT : Found by LKH-AMZ [Keld Helsgaun] Sun May 11 12:56:08 2025
COMMENT : TW viol.: 0 #: 0
TYPE : TOUR
DIMENSION : 177
TOUR_SECTION
67
114
107
7
76
132
43
102
115
38
56
91
101
6
86
157
126
106
30
147
141
62
4
164
138
15
94
10
42
65
3
159
66
22
18
104
1
64
131
129
143
171
103
148
45
52
162
54
160
85
46
127
80
89
35
39
167
12
112
137
177
41
28
93
156
34
118
140
57
60
87
25
83
153
72
21
74
119
71
96
108
174
98
123
31
44
169
122
50
110
81
145
37
48
8
135
53
55
133
13
49
11
163
116
9
124
92
47
51
172
32
149
134
26
136
20
170
100
168
29
125
14
2
58
113
78
88
77
173
69
146
16
19
166
70
175
36
17
117
158
61
68
23
155
33
79
40
121
161
128
73
154
5
90
144
75
84
109
99
139
151
165
27
130
24
82
176
150
97
120
111
95
142
152
105
59
63
-1
EOF
